p tdp 20 117
1 2
1 3
1 4
1 5
1 7
1 9
1 10
1 12
1 13
1 15
1 16
1 20
2 3
2 4
2 6
2 7
2 8
2 9
2 10
2 11
2 12
2 14
2 15
2 16
2 17
2 18
3 5
3 8
3 9
3 12
3 14
3 15
3 16
3 18
3 19
3 20
4 7
4 8
4 9
4 11
4 12
4 14
4 15
4 19
4 20
5 6
5 7
5 9
5 10
5 11
5 12
5 13
5 15
5 17
5 19
5 20
6 9
6 10
6 12
6 13
6 14
6 15
6 18
6 19
6 20
7 8
7 9
7 10
7 11
7 12
7 13
7 15
8 9
8 11
8 14
8 16
8 17
8 18
8 19
8 20
9 10
9 11
9 12
9 14
9 15
9 17
9 18
10 13
10 17
10 18
10 19
11 12
11 13
11 14
11 15
11 16
11 18
11 19
11 20
12 15
12 16
12 17
12 20
13 14
13 18
13 20
14 15
14 17
14 19
14 20
15 17
15 20
16 17
16 19
17 18
17 20
19 20
